; PUSH cw_1 PUSH cw_2 GAS SWAP2 POP => GAS PUSH cw_2
(set-option :produce-proofs true)
; 
(set-info :status unknown)
(declare-fun storage_t ((_ BitVec 256) (_ BitVec 256) (_ BitVec 256) Int (_ BitVec 256)) (_ BitVec 256))
(declare-fun w_2 () (_ BitVec 256))
(declare-fun w_1 () (_ BitVec 256))
(declare-fun storage_s ((_ BitVec 256) (_ BitVec 256) (_ BitVec 256) Int (_ BitVec 256)) (_ BitVec 256))
(declare-fun exc_halt_t (Int) Bool)
(declare-fun exc_halt_s (Int) Bool)
(declare-fun stack_t ((_ BitVec 256) (_ BitVec 256) (_ BitVec 256) Int (_ BitVec 6)) (_ BitVec 256))
(declare-fun stack_s ((_ BitVec 256) (_ BitVec 256) (_ BitVec 256) Int (_ BitVec 6)) (_ BitVec 256))
(declare-fun sc_t (Int) (_ BitVec 6))
(declare-fun sc_s (Int) (_ BitVec 6))
(declare-fun used_gas_t ((_ BitVec 256) (_ BitVec 256) (_ BitVec 256) Int) Int)
(declare-fun used_gas_s ((_ BitVec 256) (_ BitVec 256) (_ BitVec 256) Int) Int)
(assert
 (exists ((x_GAS (_ BitVec 256)) )(let (($x8759 (forall ((w (_ BitVec 256)) )(let ((?x10827 (storage_t w_1 w_2 x_GAS 2 w)))
 (let ((?x2200 (storage_s w_1 w_2 x_GAS 5 w)))
 (= ?x2200 ?x10827))))
 ))
 (let (($x903 (exc_halt_t 2)))
 (let (($x3979 (exc_halt_s 5)))
 (let (($x2105 (= $x3979 $x903)))
 (let (($x2282 (forall ((n (_ BitVec 6)) )(let ((?x3356 (stack_t w_1 w_2 x_GAS 2 n)))
 (let ((?x3251 (stack_s w_1 w_2 x_GAS 5 n)))
 (let (($x9585 (= ?x3251 ?x3356)))
 (let ((?x4056 (sc_t 2)))
 (let (($x1531 (bvsle ?x4056 n)))
 (or $x1531 $x9585)))))))
 ))
 (let ((?x4056 (sc_t 2)))
 (let ((?x805 (sc_s 5)))
 (let (($x4500 (= ?x805 ?x4056)))
 (let ((?x10860 (used_gas_t w_1 w_2 x_GAS 0)))
 (let ((?x2707 (used_gas_s w_1 w_2 x_GAS 0)))
 (let (($x10922 (= ?x2707 ?x10860)))
 (let (($x3178 (forall ((w (_ BitVec 256)) )(let ((?x9539 (storage_t w_1 w_2 x_GAS 0 w)))
 (let ((?x10805 (storage_s w_1 w_2 x_GAS 0 w)))
 (= ?x10805 ?x9539))))
 ))
 (let (($x56 (exc_halt_t 0)))
 (let (($x57 (exc_halt_s 0)))
 (let (($x58 (= $x57 $x56)))
 (let (($x7336 (forall ((n (_ BitVec 6)) )(let ((?x63 (sc_t 0)))
 (let (($x4577 (bvsle ?x63 n)))
 (let ((?x5469 (stack_t w_1 w_2 x_GAS 0 n)))
 (let ((?x246 (stack_s w_1 w_2 x_GAS 0 n)))
 (let (($x789 (= ?x246 ?x5469)))
 (or $x789 $x4577)))))))
 ))
 (let ((?x63 (sc_t 0)))
 (let ((?x72 (sc_s 0)))
 (let (($x73 (= ?x72 ?x63)))
 (let (($x5064 (not (= ((_ extract 6 6) (bvadd (_ bv1 7) (concat (_ bv0 1) (sc_t 1)))) (_ bv0 1)))))
 (let (($x1920 (exc_halt_t 1)))
 (let (($x2264 (= $x903 (or $x1920 $x5064))))
 (let (($x8290 (forall ((w (_ BitVec 256)) )(let ((?x6970 (storage_t w_1 w_2 x_GAS 1 w)))
 (let ((?x10827 (storage_t w_1 w_2 x_GAS 2 w)))
 (= ?x10827 ?x6970))))
 ))
 (let (($x10614 (forall ((n (_ BitVec 6)) )(let ((?x4023 (sc_t 1)))
 (let (($x9213 (bvsle ?x4023 n)))
 (let ((?x2460 (stack_t w_1 w_2 x_GAS 1 n)))
 (let ((?x3356 (stack_t w_1 w_2 x_GAS 2 n)))
 (or (= ?x3356 ?x2460) $x9213))))))
 ))
 (let (($x8778 (= ?x4056 (bvadd (_ bv1 6) (sc_t 1)))))
 (let (($x10581 (= (used_gas_t w_1 w_2 x_GAS 2) (+ 3 (used_gas_t w_1 w_2 x_GAS 1)))))
 (let (($x2260 (= $x1920 (or $x56 (not (= ((_ extract 6 6) (bvadd (_ bv1 7) (concat (_ bv0 1) ?x63))) (_ bv0 1)))))))
 (let (($x3290 (forall ((w (_ BitVec 256)) )(let ((?x9539 (storage_t w_1 w_2 x_GAS 0 w)))
 (let ((?x6970 (storage_t w_1 w_2 x_GAS 1 w)))
 (= ?x6970 ?x9539))))
 ))
 (let (($x1000 (forall ((n (_ BitVec 6)) )(let ((?x63 (sc_t 0)))
 (let (($x4577 (bvsle ?x63 n)))
 (let ((?x5469 (stack_t w_1 w_2 x_GAS 0 n)))
 (let ((?x2460 (stack_t w_1 w_2 x_GAS 1 n)))
 (or (= ?x2460 ?x5469) $x4577))))))
 ))
 (let ((?x4023 (sc_t 1)))
 (let (($x245 (= ?x4023 (bvadd (_ bv1 6) ?x63))))
 (let (($x1810 (= $x3979 (or (exc_halt_s 4) (not (bvsle (_ bv0 6) (bvadd (_ bv63 6) (sc_s 4))))))))
 (let (($x4800 (forall ((w (_ BitVec 256)) )(let ((?x9229 (storage_s w_1 w_2 x_GAS 4 w)))
 (let ((?x2200 (storage_s w_1 w_2 x_GAS 5 w)))
 (= ?x2200 ?x9229))))
 ))
 (let (($x10741 (forall ((n (_ BitVec 6)) )(let ((?x5579 (stack_s w_1 w_2 x_GAS 4 n)))
 (let ((?x3251 (stack_s w_1 w_2 x_GAS 5 n)))
 (let ((?x4305 (sc_s 4)))
 (let ((?x1489 (bvadd (_ bv63 6) ?x4305)))
 (let (($x9956 (bvsle ?x1489 n)))
 (or $x9956 (= ?x3251 ?x5579))))))))
 ))
 (let ((?x4305 (sc_s 4)))
 (let ((?x1489 (bvadd (_ bv63 6) ?x4305)))
 (let (($x6499 (= ?x805 ?x1489)))
 (let (($x6532 (= (used_gas_s w_1 w_2 x_GAS 5) (+ 2 (used_gas_s w_1 w_2 x_GAS 4)))))
 (let (($x64 (exc_halt_s 4)))
 (let (($x7345 (= $x64 (or (exc_halt_s 3) (not (bvsle (_ bv0 6) (bvadd (_ bv61 6) (sc_s 3))))))))
 (let (($x1865 (forall ((w (_ BitVec 256)) )(let ((?x5567 (storage_s w_1 w_2 x_GAS 3 w)))
 (let ((?x9229 (storage_s w_1 w_2 x_GAS 4 w)))
 (= ?x9229 ?x5567))))
 ))
 (let (($x186 (forall ((n (_ BitVec 6)) )(let ((?x275 (sc_s 3)))
 (let ((?x10438 (bvadd (_ bv61 6) ?x275)))
 (let (($x1703 (bvsle ?x10438 n)))
 (let ((?x9060 (stack_s w_1 w_2 x_GAS 3 n)))
 (let ((?x5579 (stack_s w_1 w_2 x_GAS 4 n)))
 (or (= ?x5579 ?x9060) $x1703)))))))
 ))
 (let ((?x275 (sc_s 3)))
 (let (($x180 (= ?x4305 ?x275)))
 (let ((?x7109 (used_gas_s w_1 w_2 x_GAS 4)))
 (let (($x8764 (= (stack_s w_1 w_2 x_GAS 4 (bvadd (_ bv62 6) ?x4305)) (stack_s w_1 w_2 x_GAS 3 (bvadd (_ bv62 6) ?x275)))))
 (let (($x9072 (= (stack_s w_1 w_2 x_GAS 4 (bvadd (_ bv61 6) ?x4305)) (stack_s w_1 w_2 x_GAS 3 (bvadd (_ bv63 6) ?x275)))))
 (let (($x10985 (= (stack_s w_1 w_2 x_GAS 4 ?x1489) (stack_s w_1 w_2 x_GAS 3 (bvadd (_ bv61 6) ?x275)))))
 (let (($x608 (not (= ((_ extract 6 6) (bvadd (_ bv1 7) (concat (_ bv0 1) (sc_s 2)))) (_ bv0 1)))))
 (let (($x247 (exc_halt_s 2)))
 (let (($x292 (exc_halt_s 3)))
 (let (($x9708 (forall ((w (_ BitVec 256)) )(let ((?x4869 (storage_s w_1 w_2 x_GAS 2 w)))
 (let ((?x5567 (storage_s w_1 w_2 x_GAS 3 w)))
 (= ?x5567 ?x4869))))
 ))
 (let (($x9416 (forall ((n (_ BitVec 6)) )(let ((?x9477 (stack_s w_1 w_2 x_GAS 2 n)))
 (let ((?x9060 (stack_s w_1 w_2 x_GAS 3 n)))
 (or (= ?x9060 ?x9477) (bvsle (sc_s 2) n)))))
 ))
 (let (($x5948 (= ?x275 (bvadd (_ bv1 6) (sc_s 2)))))
 (let ((?x9269 (used_gas_s w_1 w_2 x_GAS 3)))
 (let (($x6305 (not (= ((_ extract 6 6) (bvadd (_ bv1 7) (concat (_ bv0 1) (sc_s 1)))) (_ bv0 1)))))
 (let (($x189 (exc_halt_s 1)))
 (let (($x1572 (= $x247 (or $x189 $x6305))))
 (let (($x8593 (forall ((w (_ BitVec 256)) )(let ((?x9335 (storage_s w_1 w_2 x_GAS 1 w)))
 (let ((?x4869 (storage_s w_1 w_2 x_GAS 2 w)))
 (= ?x4869 ?x9335))))
 ))
 (let (($x10766 (forall ((n (_ BitVec 6)) )(let ((?x7705 (stack_s w_1 w_2 x_GAS 1 n)))
 (let ((?x9477 (stack_s w_1 w_2 x_GAS 2 n)))
 (let ((?x154 (sc_s 1)))
 (let (($x1745 (bvsle ?x154 n)))
 (or $x1745 (= ?x9477 ?x7705)))))))
 ))
 (let ((?x218 (sc_s 2)))
 (let (($x2153 (= ?x218 (bvadd (_ bv1 6) (sc_s 1)))))
 (let ((?x10625 (used_gas_s w_1 w_2 x_GAS 2)))
 (let (($x4891 (= $x189 (or $x57 (not (= ((_ extract 6 6) (bvadd (_ bv1 7) (concat (_ bv0 1) ?x72))) (_ bv0 1)))))))
 (let (($x6516 (forall ((w (_ BitVec 256)) )(let ((?x10805 (storage_s w_1 w_2 x_GAS 0 w)))
 (let ((?x9335 (storage_s w_1 w_2 x_GAS 1 w)))
 (= ?x9335 ?x10805))))
 ))
 (let (($x7138 (forall ((n (_ BitVec 6)) )(let ((?x72 (sc_s 0)))
 (let (($x7832 (bvsle ?x72 n)))
 (let ((?x246 (stack_s w_1 w_2 x_GAS 0 n)))
 (let ((?x7705 (stack_s w_1 w_2 x_GAS 1 n)))
 (or (= ?x7705 ?x246) $x7832))))))
 ))
 (let ((?x154 (sc_s 1)))
 (let (($x3745 (= ?x154 (bvadd (_ bv1 6) ?x72))))
 (let (($x195 (forall ((w (_ BitVec 256)) )(let ((?x10805 (storage_s w_1 w_2 x_GAS 0 w)))
 (= ?x10805 (_ bv0 256))))
 ))
 (let (($x4553 (= ?x2707 0)))
 (let (($x5252 (not $x57)))
 (let (($x136 (= ?x72 (_ bv0 6))))
 (and $x136 $x5252 $x4553 $x195 (= (stack_s w_1 w_2 x_GAS 1 ?x72) w_1) (= (used_gas_s w_1 w_2 x_GAS 1) (+ 3 ?x2707)) $x3745 $x7138 $x6516 $x4891 (= (stack_s w_1 w_2 x_GAS 2 ?x154) w_2) (= ?x10625 (+ 3 (used_gas_s w_1 w_2 x_GAS 1))) $x2153 $x10766 $x8593 $x1572 (= (stack_s w_1 w_2 x_GAS 3 ?x218) x_GAS) (= ?x9269 (+ 2 ?x10625)) $x5948 $x9416 $x9708 (= $x292 (or $x247 $x608)) $x10985 $x9072 $x8764 (= ?x7109 (+ 3 ?x9269)) $x180 $x186 $x1865 $x7345 $x6532 $x6499 $x10741 $x4800 $x1810 (= (stack_t w_1 w_2 x_GAS 1 ?x63) x_GAS) (= (used_gas_t w_1 w_2 x_GAS 1) (+ 2 ?x10860)) $x245 $x1000 $x3290 $x2260 (= (stack_t w_1 w_2 x_GAS 2 ?x4023) w_2) $x10581 $x8778 $x10614 $x8290 $x2264 $x73 $x7336 $x58 $x3178 $x10922 (not (and $x4500 $x2282 $x2105 $x8759))))))))))))))))))))))))))))))))))))))))))))))))))))))))))))))))))))))))))))
 )
(check-sat)
(get-proof)
